Minimize
obj: z

Subject To
1.0 X_1_1 + 1.0 X_1_2 + 1.0 X_1_3 + 1.0 X_1_4 + 1.0 X_1_5 + 1.0 X_1_6 + 1.0 X_1_7 + 1.0 X_1_8 + 1.0 X_1_9 + 1.0 X_1_10 + 1.0 X_1_11 + 1.0 X_1_12 + 1.0 X_1_13 + 1.0 X_1_14 + 1.0 X_1_15 + 1.0 X_1_16 + 1.0 X_1_17 + 1.0 X_1_18 + 1.0 X_1_19 + 1.0 X_1_20 = 1
1.0 X_2_1 + 1.0 X_2_2 + 1.0 X_2_3 + 1.0 X_2_4 + 1.0 X_2_5 + 1.0 X_2_6 + 1.0 X_2_7 + 1.0 X_2_8 + 1.0 X_2_9 + 1.0 X_2_10 + 1.0 X_2_11 + 1.0 X_2_12 + 1.0 X_2_13 + 1.0 X_2_14 + 1.0 X_2_15 + 1.0 X_2_16 + 1.0 X_2_17 + 1.0 X_2_18 + 1.0 X_2_19 + 1.0 X_2_20 = 1
1.0 X_3_1 + 1.0 X_3_2 + 1.0 X_3_3 + 1.0 X_3_4 + 1.0 X_3_5 + 1.0 X_3_6 + 1.0 X_3_7 + 1.0 X_3_8 + 1.0 X_3_9 + 1.0 X_3_10 + 1.0 X_3_11 + 1.0 X_3_12 + 1.0 X_3_13 + 1.0 X_3_14 + 1.0 X_3_15 + 1.0 X_3_16 + 1.0 X_3_17 + 1.0 X_3_18 + 1.0 X_3_19 + 1.0 X_3_20 = 1
1.0 X_4_1 + 1.0 X_4_2 + 1.0 X_4_3 + 1.0 X_4_4 + 1.0 X_4_5 + 1.0 X_4_6 + 1.0 X_4_7 + 1.0 X_4_8 + 1.0 X_4_9 + 1.0 X_4_10 + 1.0 X_4_11 + 1.0 X_4_12 + 1.0 X_4_13 + 1.0 X_4_14 + 1.0 X_4_15 + 1.0 X_4_16 + 1.0 X_4_17 + 1.0 X_4_18 + 1.0 X_4_19 + 1.0 X_4_20 = 1
1.0 X_5_1 + 1.0 X_5_2 + 1.0 X_5_3 + 1.0 X_5_4 + 1.0 X_5_5 + 1.0 X_5_6 + 1.0 X_5_7 + 1.0 X_5_8 + 1.0 X_5_9 + 1.0 X_5_10 + 1.0 X_5_11 + 1.0 X_5_12 + 1.0 X_5_13 + 1.0 X_5_14 + 1.0 X_5_15 + 1.0 X_5_16 + 1.0 X_5_17 + 1.0 X_5_18 + 1.0 X_5_19 + 1.0 X_5_20 = 1
1.0 X_6_1 + 1.0 X_6_2 + 1.0 X_6_3 + 1.0 X_6_4 + 1.0 X_6_5 + 1.0 X_6_6 + 1.0 X_6_7 + 1.0 X_6_8 + 1.0 X_6_9 + 1.0 X_6_10 + 1.0 X_6_11 + 1.0 X_6_12 + 1.0 X_6_13 + 1.0 X_6_14 + 1.0 X_6_15 + 1.0 X_6_16 + 1.0 X_6_17 + 1.0 X_6_18 + 1.0 X_6_19 + 1.0 X_6_20 = 1
1.0 X_7_1 + 1.0 X_7_2 + 1.0 X_7_3 + 1.0 X_7_4 + 1.0 X_7_5 + 1.0 X_7_6 + 1.0 X_7_7 + 1.0 X_7_8 + 1.0 X_7_9 + 1.0 X_7_10 + 1.0 X_7_11 + 1.0 X_7_12 + 1.0 X_7_13 + 1.0 X_7_14 + 1.0 X_7_15 + 1.0 X_7_16 + 1.0 X_7_17 + 1.0 X_7_18 + 1.0 X_7_19 + 1.0 X_7_20 = 1
1.0 X_8_1 + 1.0 X_8_2 + 1.0 X_8_3 + 1.0 X_8_4 + 1.0 X_8_5 + 1.0 X_8_6 + 1.0 X_8_7 + 1.0 X_8_8 + 1.0 X_8_9 + 1.0 X_8_10 + 1.0 X_8_11 + 1.0 X_8_12 + 1.0 X_8_13 + 1.0 X_8_14 + 1.0 X_8_15 + 1.0 X_8_16 + 1.0 X_8_17 + 1.0 X_8_18 + 1.0 X_8_19 + 1.0 X_8_20 = 1
1.0 X_9_1 + 1.0 X_9_2 + 1.0 X_9_3 + 1.0 X_9_4 + 1.0 X_9_5 + 1.0 X_9_6 + 1.0 X_9_7 + 1.0 X_9_8 + 1.0 X_9_9 + 1.0 X_9_10 + 1.0 X_9_11 + 1.0 X_9_12 + 1.0 X_9_13 + 1.0 X_9_14 + 1.0 X_9_15 + 1.0 X_9_16 + 1.0 X_9_17 + 1.0 X_9_18 + 1.0 X_9_19 + 1.0 X_9_20 = 1
1.0 X_10_1 + 1.0 X_10_2 + 1.0 X_10_3 + 1.0 X_10_4 + 1.0 X_10_5 + 1.0 X_10_6 + 1.0 X_10_7 + 1.0 X_10_8 + 1.0 X_10_9 + 1.0 X_10_10 + 1.0 X_10_11 + 1.0 X_10_12 + 1.0 X_10_13 + 1.0 X_10_14 + 1.0 X_10_15 + 1.0 X_10_16 + 1.0 X_10_17 + 1.0 X_10_18 + 1.0 X_10_19 + 1.0 X_10_20 = 1
1.0 X_11_1 + 1.0 X_11_2 + 1.0 X_11_3 + 1.0 X_11_4 + 1.0 X_11_5 + 1.0 X_11_6 + 1.0 X_11_7 + 1.0 X_11_8 + 1.0 X_11_9 + 1.0 X_11_10 + 1.0 X_11_11 + 1.0 X_11_12 + 1.0 X_11_13 + 1.0 X_11_14 + 1.0 X_11_15 + 1.0 X_11_16 + 1.0 X_11_17 + 1.0 X_11_18 + 1.0 X_11_19 + 1.0 X_11_20 = 1
1.0 X_12_1 + 1.0 X_12_2 + 1.0 X_12_3 + 1.0 X_12_4 + 1.0 X_12_5 + 1.0 X_12_6 + 1.0 X_12_7 + 1.0 X_12_8 + 1.0 X_12_9 + 1.0 X_12_10 + 1.0 X_12_11 + 1.0 X_12_12 + 1.0 X_12_13 + 1.0 X_12_14 + 1.0 X_12_15 + 1.0 X_12_16 + 1.0 X_12_17 + 1.0 X_12_18 + 1.0 X_12_19 + 1.0 X_12_20 = 1
1.0 X_13_1 + 1.0 X_13_2 + 1.0 X_13_3 + 1.0 X_13_4 + 1.0 X_13_5 + 1.0 X_13_6 + 1.0 X_13_7 + 1.0 X_13_8 + 1.0 X_13_9 + 1.0 X_13_10 + 1.0 X_13_11 + 1.0 X_13_12 + 1.0 X_13_13 + 1.0 X_13_14 + 1.0 X_13_15 + 1.0 X_13_16 + 1.0 X_13_17 + 1.0 X_13_18 + 1.0 X_13_19 + 1.0 X_13_20 = 1
1.0 X_14_1 + 1.0 X_14_2 + 1.0 X_14_3 + 1.0 X_14_4 + 1.0 X_14_5 + 1.0 X_14_6 + 1.0 X_14_7 + 1.0 X_14_8 + 1.0 X_14_9 + 1.0 X_14_10 + 1.0 X_14_11 + 1.0 X_14_12 + 1.0 X_14_13 + 1.0 X_14_14 + 1.0 X_14_15 + 1.0 X_14_16 + 1.0 X_14_17 + 1.0 X_14_18 + 1.0 X_14_19 + 1.0 X_14_20 = 1
1.0 X_15_1 + 1.0 X_15_2 + 1.0 X_15_3 + 1.0 X_15_4 + 1.0 X_15_5 + 1.0 X_15_6 + 1.0 X_15_7 + 1.0 X_15_8 + 1.0 X_15_9 + 1.0 X_15_10 + 1.0 X_15_11 + 1.0 X_15_12 + 1.0 X_15_13 + 1.0 X_15_14 + 1.0 X_15_15 + 1.0 X_15_16 + 1.0 X_15_17 + 1.0 X_15_18 + 1.0 X_15_19 + 1.0 X_15_20 = 1
1.0 X_16_1 + 1.0 X_16_2 + 1.0 X_16_3 + 1.0 X_16_4 + 1.0 X_16_5 + 1.0 X_16_6 + 1.0 X_16_7 + 1.0 X_16_8 + 1.0 X_16_9 + 1.0 X_16_10 + 1.0 X_16_11 + 1.0 X_16_12 + 1.0 X_16_13 + 1.0 X_16_14 + 1.0 X_16_15 + 1.0 X_16_16 + 1.0 X_16_17 + 1.0 X_16_18 + 1.0 X_16_19 + 1.0 X_16_20 = 1
1.0 X_17_1 + 1.0 X_17_2 + 1.0 X_17_3 + 1.0 X_17_4 + 1.0 X_17_5 + 1.0 X_17_6 + 1.0 X_17_7 + 1.0 X_17_8 + 1.0 X_17_9 + 1.0 X_17_10 + 1.0 X_17_11 + 1.0 X_17_12 + 1.0 X_17_13 + 1.0 X_17_14 + 1.0 X_17_15 + 1.0 X_17_16 + 1.0 X_17_17 + 1.0 X_17_18 + 1.0 X_17_19 + 1.0 X_17_20 = 1
1.0 X_18_1 + 1.0 X_18_2 + 1.0 X_18_3 + 1.0 X_18_4 + 1.0 X_18_5 + 1.0 X_18_6 + 1.0 X_18_7 + 1.0 X_18_8 + 1.0 X_18_9 + 1.0 X_18_10 + 1.0 X_18_11 + 1.0 X_18_12 + 1.0 X_18_13 + 1.0 X_18_14 + 1.0 X_18_15 + 1.0 X_18_16 + 1.0 X_18_17 + 1.0 X_18_18 + 1.0 X_18_19 + 1.0 X_18_20 = 1
1.0 X_19_1 + 1.0 X_19_2 + 1.0 X_19_3 + 1.0 X_19_4 + 1.0 X_19_5 + 1.0 X_19_6 + 1.0 X_19_7 + 1.0 X_19_8 + 1.0 X_19_9 + 1.0 X_19_10 + 1.0 X_19_11 + 1.0 X_19_12 + 1.0 X_19_13 + 1.0 X_19_14 + 1.0 X_19_15 + 1.0 X_19_16 + 1.0 X_19_17 + 1.0 X_19_18 + 1.0 X_19_19 + 1.0 X_19_20 = 1
1.0 X_20_1 + 1.0 X_20_2 + 1.0 X_20_3 + 1.0 X_20_4 + 1.0 X_20_5 + 1.0 X_20_6 + 1.0 X_20_7 + 1.0 X_20_8 + 1.0 X_20_9 + 1.0 X_20_10 + 1.0 X_20_11 + 1.0 X_20_12 + 1.0 X_20_13 + 1.0 X_20_14 + 1.0 X_20_15 + 1.0 X_20_16 + 1.0 X_20_17 + 1.0 X_20_18 + 1.0 X_20_19 + 1.0 X_20_20 = 1

1.0 X_1_1 - 1.0 X_1_1 <= 0
1.0 X_1_2 - 1.0 X_2_2 <= 0
1.0 X_1_3 - 1.0 X_3_3 <= 0
1.0 X_1_4 - 1.0 X_4_4 <= 0
1.0 X_1_5 - 1.0 X_5_5 <= 0
1.0 X_1_6 - 1.0 X_6_6 <= 0
1.0 X_1_7 - 1.0 X_7_7 <= 0
1.0 X_1_8 - 1.0 X_8_8 <= 0
1.0 X_1_9 - 1.0 X_9_9 <= 0
1.0 X_1_10 - 1.0 X_10_10 <= 0
1.0 X_1_11 - 1.0 X_11_11 <= 0
1.0 X_1_12 - 1.0 X_12_12 <= 0
1.0 X_1_13 - 1.0 X_13_13 <= 0
1.0 X_1_14 - 1.0 X_14_14 <= 0
1.0 X_1_15 - 1.0 X_15_15 <= 0
1.0 X_1_16 - 1.0 X_16_16 <= 0
1.0 X_1_17 - 1.0 X_17_17 <= 0
1.0 X_1_18 - 1.0 X_18_18 <= 0
1.0 X_1_19 - 1.0 X_19_19 <= 0
1.0 X_1_20 - 1.0 X_20_20 <= 0

1.0 X_2_1 - 1.0 X_1_1 <= 0
1.0 X_2_2 - 1.0 X_2_2 <= 0
1.0 X_2_3 - 1.0 X_3_3 <= 0
1.0 X_2_4 - 1.0 X_4_4 <= 0
1.0 X_2_5 - 1.0 X_5_5 <= 0
1.0 X_2_6 - 1.0 X_6_6 <= 0
1.0 X_2_7 - 1.0 X_7_7 <= 0
1.0 X_2_8 - 1.0 X_8_8 <= 0
1.0 X_2_9 - 1.0 X_9_9 <= 0
1.0 X_2_10 - 1.0 X_10_10 <= 0
1.0 X_2_11 - 1.0 X_11_11 <= 0
1.0 X_2_12 - 1.0 X_12_12 <= 0
1.0 X_2_13 - 1.0 X_13_13 <= 0
1.0 X_2_14 - 1.0 X_14_14 <= 0
1.0 X_2_15 - 1.0 X_15_15 <= 0
1.0 X_2_16 - 1.0 X_16_16 <= 0
1.0 X_2_17 - 1.0 X_17_17 <= 0
1.0 X_2_18 - 1.0 X_18_18 <= 0
1.0 X_2_19 - 1.0 X_19_19 <= 0
1.0 X_2_20 - 1.0 X_20_20 <= 0

1.0 X_3_1 - 1.0 X_1_1 <= 0
1.0 X_3_2 - 1.0 X_2_2 <= 0
1.0 X_3_3 - 1.0 X_3_3 <= 0
1.0 X_3_4 - 1.0 X_4_4 <= 0
1.0 X_3_5 - 1.0 X_5_5 <= 0
1.0 X_3_6 - 1.0 X_6_6 <= 0
1.0 X_3_7 - 1.0 X_7_7 <= 0
1.0 X_3_8 - 1.0 X_8_8 <= 0
1.0 X_3_9 - 1.0 X_9_9 <= 0
1.0 X_3_10 - 1.0 X_10_10 <= 0
1.0 X_3_11 - 1.0 X_11_11 <= 0
1.0 X_3_12 - 1.0 X_12_12 <= 0
1.0 X_3_13 - 1.0 X_13_13 <= 0
1.0 X_3_14 - 1.0 X_14_14 <= 0
1.0 X_3_15 - 1.0 X_15_15 <= 0
1.0 X_3_16 - 1.0 X_16_16 <= 0
1.0 X_3_17 - 1.0 X_17_17 <= 0
1.0 X_3_18 - 1.0 X_18_18 <= 0
1.0 X_3_19 - 1.0 X_19_19 <= 0
1.0 X_3_20 - 1.0 X_20_20 <= 0

1.0 X_4_1 - 1.0 X_1_1 <= 0
1.0 X_4_2 - 1.0 X_2_2 <= 0
1.0 X_4_3 - 1.0 X_3_3 <= 0
1.0 X_4_4 - 1.0 X_4_4 <= 0
1.0 X_4_5 - 1.0 X_5_5 <= 0
1.0 X_4_6 - 1.0 X_6_6 <= 0
1.0 X_4_7 - 1.0 X_7_7 <= 0
1.0 X_4_8 - 1.0 X_8_8 <= 0
1.0 X_4_9 - 1.0 X_9_9 <= 0
1.0 X_4_10 - 1.0 X_10_10 <= 0
1.0 X_4_11 - 1.0 X_11_11 <= 0
1.0 X_4_12 - 1.0 X_12_12 <= 0
1.0 X_4_13 - 1.0 X_13_13 <= 0
1.0 X_4_14 - 1.0 X_14_14 <= 0
1.0 X_4_15 - 1.0 X_15_15 <= 0
1.0 X_4_16 - 1.0 X_16_16 <= 0
1.0 X_4_17 - 1.0 X_17_17 <= 0
1.0 X_4_18 - 1.0 X_18_18 <= 0
1.0 X_4_19 - 1.0 X_19_19 <= 0
1.0 X_4_20 - 1.0 X_20_20 <= 0

1.0 X_5_1 - 1.0 X_1_1 <= 0
1.0 X_5_2 - 1.0 X_2_2 <= 0
1.0 X_5_3 - 1.0 X_3_3 <= 0
1.0 X_5_4 - 1.0 X_4_4 <= 0
1.0 X_5_5 - 1.0 X_5_5 <= 0
1.0 X_5_6 - 1.0 X_6_6 <= 0
1.0 X_5_7 - 1.0 X_7_7 <= 0
1.0 X_5_8 - 1.0 X_8_8 <= 0
1.0 X_5_9 - 1.0 X_9_9 <= 0
1.0 X_5_10 - 1.0 X_10_10 <= 0
1.0 X_5_11 - 1.0 X_11_11 <= 0
1.0 X_5_12 - 1.0 X_12_12 <= 0
1.0 X_5_13 - 1.0 X_13_13 <= 0
1.0 X_5_14 - 1.0 X_14_14 <= 0
1.0 X_5_15 - 1.0 X_15_15 <= 0
1.0 X_5_16 - 1.0 X_16_16 <= 0
1.0 X_5_17 - 1.0 X_17_17 <= 0
1.0 X_5_18 - 1.0 X_18_18 <= 0
1.0 X_5_19 - 1.0 X_19_19 <= 0
1.0 X_5_20 - 1.0 X_20_20 <= 0

1.0 X_6_1 - 1.0 X_1_1 <= 0
1.0 X_6_2 - 1.0 X_2_2 <= 0
1.0 X_6_3 - 1.0 X_3_3 <= 0
1.0 X_6_4 - 1.0 X_4_4 <= 0
1.0 X_6_5 - 1.0 X_5_5 <= 0
1.0 X_6_6 - 1.0 X_6_6 <= 0
1.0 X_6_7 - 1.0 X_7_7 <= 0
1.0 X_6_8 - 1.0 X_8_8 <= 0
1.0 X_6_9 - 1.0 X_9_9 <= 0
1.0 X_6_10 - 1.0 X_10_10 <= 0
1.0 X_6_11 - 1.0 X_11_11 <= 0
1.0 X_6_12 - 1.0 X_12_12 <= 0
1.0 X_6_13 - 1.0 X_13_13 <= 0
1.0 X_6_14 - 1.0 X_14_14 <= 0
1.0 X_6_15 - 1.0 X_15_15 <= 0
1.0 X_6_16 - 1.0 X_16_16 <= 0
1.0 X_6_17 - 1.0 X_17_17 <= 0
1.0 X_6_18 - 1.0 X_18_18 <= 0
1.0 X_6_19 - 1.0 X_19_19 <= 0
1.0 X_6_20 - 1.0 X_20_20 <= 0

1.0 X_7_1 - 1.0 X_1_1 <= 0
1.0 X_7_2 - 1.0 X_2_2 <= 0
1.0 X_7_3 - 1.0 X_3_3 <= 0
1.0 X_7_4 - 1.0 X_4_4 <= 0
1.0 X_7_5 - 1.0 X_5_5 <= 0
1.0 X_7_6 - 1.0 X_6_6 <= 0
1.0 X_7_7 - 1.0 X_7_7 <= 0
1.0 X_7_8 - 1.0 X_8_8 <= 0
1.0 X_7_9 - 1.0 X_9_9 <= 0
1.0 X_7_10 - 1.0 X_10_10 <= 0
1.0 X_7_11 - 1.0 X_11_11 <= 0
1.0 X_7_12 - 1.0 X_12_12 <= 0
1.0 X_7_13 - 1.0 X_13_13 <= 0
1.0 X_7_14 - 1.0 X_14_14 <= 0
1.0 X_7_15 - 1.0 X_15_15 <= 0
1.0 X_7_16 - 1.0 X_16_16 <= 0
1.0 X_7_17 - 1.0 X_17_17 <= 0
1.0 X_7_18 - 1.0 X_18_18 <= 0
1.0 X_7_19 - 1.0 X_19_19 <= 0
1.0 X_7_20 - 1.0 X_20_20 <= 0

1.0 X_8_1 - 1.0 X_1_1 <= 0
1.0 X_8_2 - 1.0 X_2_2 <= 0
1.0 X_8_3 - 1.0 X_3_3 <= 0
1.0 X_8_4 - 1.0 X_4_4 <= 0
1.0 X_8_5 - 1.0 X_5_5 <= 0
1.0 X_8_6 - 1.0 X_6_6 <= 0
1.0 X_8_7 - 1.0 X_7_7 <= 0
1.0 X_8_8 - 1.0 X_8_8 <= 0
1.0 X_8_9 - 1.0 X_9_9 <= 0
1.0 X_8_10 - 1.0 X_10_10 <= 0
1.0 X_8_11 - 1.0 X_11_11 <= 0
1.0 X_8_12 - 1.0 X_12_12 <= 0
1.0 X_8_13 - 1.0 X_13_13 <= 0
1.0 X_8_14 - 1.0 X_14_14 <= 0
1.0 X_8_15 - 1.0 X_15_15 <= 0
1.0 X_8_16 - 1.0 X_16_16 <= 0
1.0 X_8_17 - 1.0 X_17_17 <= 0
1.0 X_8_18 - 1.0 X_18_18 <= 0
1.0 X_8_19 - 1.0 X_19_19 <= 0
1.0 X_8_20 - 1.0 X_20_20 <= 0

1.0 X_9_1 - 1.0 X_1_1 <= 0
1.0 X_9_2 - 1.0 X_2_2 <= 0
1.0 X_9_3 - 1.0 X_3_3 <= 0
1.0 X_9_4 - 1.0 X_4_4 <= 0
1.0 X_9_5 - 1.0 X_5_5 <= 0
1.0 X_9_6 - 1.0 X_6_6 <= 0
1.0 X_9_7 - 1.0 X_7_7 <= 0
1.0 X_9_8 - 1.0 X_8_8 <= 0
1.0 X_9_9 - 1.0 X_9_9 <= 0
1.0 X_9_10 - 1.0 X_10_10 <= 0
1.0 X_9_11 - 1.0 X_11_11 <= 0
1.0 X_9_12 - 1.0 X_12_12 <= 0
1.0 X_9_13 - 1.0 X_13_13 <= 0
1.0 X_9_14 - 1.0 X_14_14 <= 0
1.0 X_9_15 - 1.0 X_15_15 <= 0
1.0 X_9_16 - 1.0 X_16_16 <= 0
1.0 X_9_17 - 1.0 X_17_17 <= 0
1.0 X_9_18 - 1.0 X_18_18 <= 0
1.0 X_9_19 - 1.0 X_19_19 <= 0
1.0 X_9_20 - 1.0 X_20_20 <= 0

1.0 X_10_1 - 1.0 X_1_1 <= 0
1.0 X_10_2 - 1.0 X_2_2 <= 0
1.0 X_10_3 - 1.0 X_3_3 <= 0
1.0 X_10_4 - 1.0 X_4_4 <= 0
1.0 X_10_5 - 1.0 X_5_5 <= 0
1.0 X_10_6 - 1.0 X_6_6 <= 0
1.0 X_10_7 - 1.0 X_7_7 <= 0
1.0 X_10_8 - 1.0 X_8_8 <= 0
1.0 X_10_9 - 1.0 X_9_9 <= 0
1.0 X_10_10 - 1.0 X_10_10 <= 0
1.0 X_10_11 - 1.0 X_11_11 <= 0
1.0 X_10_12 - 1.0 X_12_12 <= 0
1.0 X_10_13 - 1.0 X_13_13 <= 0
1.0 X_10_14 - 1.0 X_14_14 <= 0
1.0 X_10_15 - 1.0 X_15_15 <= 0
1.0 X_10_16 - 1.0 X_16_16 <= 0
1.0 X_10_17 - 1.0 X_17_17 <= 0
1.0 X_10_18 - 1.0 X_18_18 <= 0
1.0 X_10_19 - 1.0 X_19_19 <= 0
1.0 X_10_20 - 1.0 X_20_20 <= 0

1.0 X_11_1 - 1.0 X_1_1 <= 0
1.0 X_11_2 - 1.0 X_2_2 <= 0
1.0 X_11_3 - 1.0 X_3_3 <= 0
1.0 X_11_4 - 1.0 X_4_4 <= 0
1.0 X_11_5 - 1.0 X_5_5 <= 0
1.0 X_11_6 - 1.0 X_6_6 <= 0
1.0 X_11_7 - 1.0 X_7_7 <= 0
1.0 X_11_8 - 1.0 X_8_8 <= 0
1.0 X_11_9 - 1.0 X_9_9 <= 0
1.0 X_11_10 - 1.0 X_10_10 <= 0
1.0 X_11_11 - 1.0 X_11_11 <= 0
1.0 X_11_12 - 1.0 X_12_12 <= 0
1.0 X_11_13 - 1.0 X_13_13 <= 0
1.0 X_11_14 - 1.0 X_14_14 <= 0
1.0 X_11_15 - 1.0 X_15_15 <= 0
1.0 X_11_16 - 1.0 X_16_16 <= 0
1.0 X_11_17 - 1.0 X_17_17 <= 0
1.0 X_11_18 - 1.0 X_18_18 <= 0
1.0 X_11_19 - 1.0 X_19_19 <= 0
1.0 X_11_20 - 1.0 X_20_20 <= 0

1.0 X_12_1 - 1.0 X_1_1 <= 0
1.0 X_12_2 - 1.0 X_2_2 <= 0
1.0 X_12_3 - 1.0 X_3_3 <= 0
1.0 X_12_4 - 1.0 X_4_4 <= 0
1.0 X_12_5 - 1.0 X_5_5 <= 0
1.0 X_12_6 - 1.0 X_6_6 <= 0
1.0 X_12_7 - 1.0 X_7_7 <= 0
1.0 X_12_8 - 1.0 X_8_8 <= 0
1.0 X_12_9 - 1.0 X_9_9 <= 0
1.0 X_12_10 - 1.0 X_10_10 <= 0
1.0 X_12_11 - 1.0 X_11_11 <= 0
1.0 X_12_12 - 1.0 X_12_12 <= 0
1.0 X_12_13 - 1.0 X_13_13 <= 0
1.0 X_12_14 - 1.0 X_14_14 <= 0
1.0 X_12_15 - 1.0 X_15_15 <= 0
1.0 X_12_16 - 1.0 X_16_16 <= 0
1.0 X_12_17 - 1.0 X_17_17 <= 0
1.0 X_12_18 - 1.0 X_18_18 <= 0
1.0 X_12_19 - 1.0 X_19_19 <= 0
1.0 X_12_20 - 1.0 X_20_20 <= 0

1.0 X_13_1 - 1.0 X_1_1 <= 0
1.0 X_13_2 - 1.0 X_2_2 <= 0
1.0 X_13_3 - 1.0 X_3_3 <= 0
1.0 X_13_4 - 1.0 X_4_4 <= 0
1.0 X_13_5 - 1.0 X_5_5 <= 0
1.0 X_13_6 - 1.0 X_6_6 <= 0
1.0 X_13_7 - 1.0 X_7_7 <= 0
1.0 X_13_8 - 1.0 X_8_8 <= 0
1.0 X_13_9 - 1.0 X_9_9 <= 0
1.0 X_13_10 - 1.0 X_10_10 <= 0
1.0 X_13_11 - 1.0 X_11_11 <= 0
1.0 X_13_12 - 1.0 X_12_12 <= 0
1.0 X_13_13 - 1.0 X_13_13 <= 0
1.0 X_13_14 - 1.0 X_14_14 <= 0
1.0 X_13_15 - 1.0 X_15_15 <= 0
1.0 X_13_16 - 1.0 X_16_16 <= 0
1.0 X_13_17 - 1.0 X_17_17 <= 0
1.0 X_13_18 - 1.0 X_18_18 <= 0
1.0 X_13_19 - 1.0 X_19_19 <= 0
1.0 X_13_20 - 1.0 X_20_20 <= 0

1.0 X_14_1 - 1.0 X_1_1 <= 0
1.0 X_14_2 - 1.0 X_2_2 <= 0
1.0 X_14_3 - 1.0 X_3_3 <= 0
1.0 X_14_4 - 1.0 X_4_4 <= 0
1.0 X_14_5 - 1.0 X_5_5 <= 0
1.0 X_14_6 - 1.0 X_6_6 <= 0
1.0 X_14_7 - 1.0 X_7_7 <= 0
1.0 X_14_8 - 1.0 X_8_8 <= 0
1.0 X_14_9 - 1.0 X_9_9 <= 0
1.0 X_14_10 - 1.0 X_10_10 <= 0
1.0 X_14_11 - 1.0 X_11_11 <= 0
1.0 X_14_12 - 1.0 X_12_12 <= 0
1.0 X_14_13 - 1.0 X_13_13 <= 0
1.0 X_14_14 - 1.0 X_14_14 <= 0
1.0 X_14_15 - 1.0 X_15_15 <= 0
1.0 X_14_16 - 1.0 X_16_16 <= 0
1.0 X_14_17 - 1.0 X_17_17 <= 0
1.0 X_14_18 - 1.0 X_18_18 <= 0
1.0 X_14_19 - 1.0 X_19_19 <= 0
1.0 X_14_20 - 1.0 X_20_20 <= 0

1.0 X_15_1 - 1.0 X_1_1 <= 0
1.0 X_15_2 - 1.0 X_2_2 <= 0
1.0 X_15_3 - 1.0 X_3_3 <= 0
1.0 X_15_4 - 1.0 X_4_4 <= 0
1.0 X_15_5 - 1.0 X_5_5 <= 0
1.0 X_15_6 - 1.0 X_6_6 <= 0
1.0 X_15_7 - 1.0 X_7_7 <= 0
1.0 X_15_8 - 1.0 X_8_8 <= 0
1.0 X_15_9 - 1.0 X_9_9 <= 0
1.0 X_15_10 - 1.0 X_10_10 <= 0
1.0 X_15_11 - 1.0 X_11_11 <= 0
1.0 X_15_12 - 1.0 X_12_12 <= 0
1.0 X_15_13 - 1.0 X_13_13 <= 0
1.0 X_15_14 - 1.0 X_14_14 <= 0
1.0 X_15_15 - 1.0 X_15_15 <= 0
1.0 X_15_16 - 1.0 X_16_16 <= 0
1.0 X_15_17 - 1.0 X_17_17 <= 0
1.0 X_15_18 - 1.0 X_18_18 <= 0
1.0 X_15_19 - 1.0 X_19_19 <= 0
1.0 X_15_20 - 1.0 X_20_20 <= 0

1.0 X_16_1 - 1.0 X_1_1 <= 0
1.0 X_16_2 - 1.0 X_2_2 <= 0
1.0 X_16_3 - 1.0 X_3_3 <= 0
1.0 X_16_4 - 1.0 X_4_4 <= 0
1.0 X_16_5 - 1.0 X_5_5 <= 0
1.0 X_16_6 - 1.0 X_6_6 <= 0
1.0 X_16_7 - 1.0 X_7_7 <= 0
1.0 X_16_8 - 1.0 X_8_8 <= 0
1.0 X_16_9 - 1.0 X_9_9 <= 0
1.0 X_16_10 - 1.0 X_10_10 <= 0
1.0 X_16_11 - 1.0 X_11_11 <= 0
1.0 X_16_12 - 1.0 X_12_12 <= 0
1.0 X_16_13 - 1.0 X_13_13 <= 0
1.0 X_16_14 - 1.0 X_14_14 <= 0
1.0 X_16_15 - 1.0 X_15_15 <= 0
1.0 X_16_16 - 1.0 X_16_16 <= 0
1.0 X_16_17 - 1.0 X_17_17 <= 0
1.0 X_16_18 - 1.0 X_18_18 <= 0
1.0 X_16_19 - 1.0 X_19_19 <= 0
1.0 X_16_20 - 1.0 X_20_20 <= 0

1.0 X_17_1 - 1.0 X_1_1 <= 0
1.0 X_17_2 - 1.0 X_2_2 <= 0
1.0 X_17_3 - 1.0 X_3_3 <= 0
1.0 X_17_4 - 1.0 X_4_4 <= 0
1.0 X_17_5 - 1.0 X_5_5 <= 0
1.0 X_17_6 - 1.0 X_6_6 <= 0
1.0 X_17_7 - 1.0 X_7_7 <= 0
1.0 X_17_8 - 1.0 X_8_8 <= 0
1.0 X_17_9 - 1.0 X_9_9 <= 0
1.0 X_17_10 - 1.0 X_10_10 <= 0
1.0 X_17_11 - 1.0 X_11_11 <= 0
1.0 X_17_12 - 1.0 X_12_12 <= 0
1.0 X_17_13 - 1.0 X_13_13 <= 0
1.0 X_17_14 - 1.0 X_14_14 <= 0
1.0 X_17_15 - 1.0 X_15_15 <= 0
1.0 X_17_16 - 1.0 X_16_16 <= 0
1.0 X_17_17 - 1.0 X_17_17 <= 0
1.0 X_17_18 - 1.0 X_18_18 <= 0
1.0 X_17_19 - 1.0 X_19_19 <= 0
1.0 X_17_20 - 1.0 X_20_20 <= 0

1.0 X_18_1 - 1.0 X_1_1 <= 0
1.0 X_18_2 - 1.0 X_2_2 <= 0
1.0 X_18_3 - 1.0 X_3_3 <= 0
1.0 X_18_4 - 1.0 X_4_4 <= 0
1.0 X_18_5 - 1.0 X_5_5 <= 0
1.0 X_18_6 - 1.0 X_6_6 <= 0
1.0 X_18_7 - 1.0 X_7_7 <= 0
1.0 X_18_8 - 1.0 X_8_8 <= 0
1.0 X_18_9 - 1.0 X_9_9 <= 0
1.0 X_18_10 - 1.0 X_10_10 <= 0
1.0 X_18_11 - 1.0 X_11_11 <= 0
1.0 X_18_12 - 1.0 X_12_12 <= 0
1.0 X_18_13 - 1.0 X_13_13 <= 0
1.0 X_18_14 - 1.0 X_14_14 <= 0
1.0 X_18_15 - 1.0 X_15_15 <= 0
1.0 X_18_16 - 1.0 X_16_16 <= 0
1.0 X_18_17 - 1.0 X_17_17 <= 0
1.0 X_18_18 - 1.0 X_18_18 <= 0
1.0 X_18_19 - 1.0 X_19_19 <= 0
1.0 X_18_20 - 1.0 X_20_20 <= 0

1.0 X_19_1 - 1.0 X_1_1 <= 0
1.0 X_19_2 - 1.0 X_2_2 <= 0
1.0 X_19_3 - 1.0 X_3_3 <= 0
1.0 X_19_4 - 1.0 X_4_4 <= 0
1.0 X_19_5 - 1.0 X_5_5 <= 0
1.0 X_19_6 - 1.0 X_6_6 <= 0
1.0 X_19_7 - 1.0 X_7_7 <= 0
1.0 X_19_8 - 1.0 X_8_8 <= 0
1.0 X_19_9 - 1.0 X_9_9 <= 0
1.0 X_19_10 - 1.0 X_10_10 <= 0
1.0 X_19_11 - 1.0 X_11_11 <= 0
1.0 X_19_12 - 1.0 X_12_12 <= 0
1.0 X_19_13 - 1.0 X_13_13 <= 0
1.0 X_19_14 - 1.0 X_14_14 <= 0
1.0 X_19_15 - 1.0 X_15_15 <= 0
1.0 X_19_16 - 1.0 X_16_16 <= 0
1.0 X_19_17 - 1.0 X_17_17 <= 0
1.0 X_19_18 - 1.0 X_18_18 <= 0
1.0 X_19_19 - 1.0 X_19_19 <= 0
1.0 X_19_20 - 1.0 X_20_20 <= 0

1.0 X_20_1 - 1.0 X_1_1 <= 0
1.0 X_20_2 - 1.0 X_2_2 <= 0
1.0 X_20_3 - 1.0 X_3_3 <= 0
1.0 X_20_4 - 1.0 X_4_4 <= 0
1.0 X_20_5 - 1.0 X_5_5 <= 0
1.0 X_20_6 - 1.0 X_6_6 <= 0
1.0 X_20_7 - 1.0 X_7_7 <= 0
1.0 X_20_8 - 1.0 X_8_8 <= 0
1.0 X_20_9 - 1.0 X_9_9 <= 0
1.0 X_20_10 - 1.0 X_10_10 <= 0
1.0 X_20_11 - 1.0 X_11_11 <= 0
1.0 X_20_12 - 1.0 X_12_12 <= 0
1.0 X_20_13 - 1.0 X_13_13 <= 0
1.0 X_20_14 - 1.0 X_14_14 <= 0
1.0 X_20_15 - 1.0 X_15_15 <= 0
1.0 X_20_16 - 1.0 X_16_16 <= 0
1.0 X_20_17 - 1.0 X_17_17 <= 0
1.0 X_20_18 - 1.0 X_18_18 <= 0
1.0 X_20_19 - 1.0 X_19_19 <= 0
1.0 X_20_20 - 1.0 X_20_20 <= 0

1.0 X_1_1 + 1.0 X_2_2 + 1.0 X_3_3 + 1.0 X_4_4 + 1.0 X_5_5 + 1.0 X_6_6 + 1.0 X_7_7 + 1.0 X_8_8 + 1.0 X_9_9 + 1.0 X_10_10 + 1.0 X_11_11 + 1.0 X_12_12 + 1.0 X_13_13 + 1.0 X_14_14 + 1.0 X_15_15 + 1.0 X_16_16 + 1.0 X_17_17 + 1.0 X_18_18 + 1.0 X_19_19 + 1.0 X_20_20 = 2

r_1 - 0.000000 X_1_1 >= 0
r_2 - 11573.680449 X_1_2 >= 0
r_3 - 18163.411704 X_1_3 >= 0
r_4 - 36817.924256 X_1_4 >= 0
r_5 - 15640.177599 X_1_5 >= 0
r_6 - 17506.423842 X_1_6 >= 0
r_7 - 22977.075706 X_1_7 >= 0
r_8 - 32193.635298 X_1_8 >= 0
r_9 - 20952.586216 X_1_9 >= 0
r_10 - 25387.062499 X_1_10 >= 0
r_11 - 29774.379425 X_1_11 >= 0
r_12 - 36858.081040 X_1_12 >= 0
r_13 - 26751.922134 X_1_13 >= 0
r_14 - 32128.150462 X_1_14 >= 0
r_15 - 32804.232884 X_1_15 >= 0
r_16 - 37925.077346 X_1_16 >= 0
r_17 - 32953.053481 X_1_17 >= 0
r_18 - 34220.366976 X_1_18 >= 0
r_19 - 35513.386889 X_1_19 >= 0
r_20 - 37877.783478 X_1_20 >= 0
r_1 - 11573.680449 X_2_1 >= 0
r_2 - 0.000000 X_2_2 >= 0
r_3 - 10075.249909 X_2_3 >= 0
r_4 - 26434.767398 X_2_4 >= 0
r_5 - 20170.356461 X_2_5 >= 0
r_6 - 15388.685544 X_2_6 >= 0
r_7 - 18942.300323 X_2_7 >= 0
r_8 - 26082.039816 X_2_8 >= 0
r_9 - 25120.784956 X_2_9 >= 0
r_10 - 24313.437810 X_2_10 >= 0
r_11 - 26951.780016 X_2_11 >= 0
r_12 - 31700.070608 X_2_12 >= 0
r_13 - 30086.018957 X_2_13 >= 0
r_14 - 33114.811704 X_2_14 >= 0
r_15 - 32450.797588 X_2_15 >= 0
r_16 - 34167.914043 X_2_16 >= 0
r_17 - 39186.633294 X_2_17 >= 0
r_18 - 36810.532154 X_2_18 >= 0
r_19 - 35922.964671 X_2_19 >= 0
r_20 - 37001.731160 X_2_20 >= 0
r_1 - 18163.411704 X_3_1 >= 0
r_2 - 10075.249909 X_3_2 >= 0
r_3 - 0.000000 X_3_3 >= 0
r_4 - 19050.708631 X_3_4 >= 0
r_5 - 18041.531424 X_3_5 >= 0
r_6 - 9062.016164 X_3_6 >= 0
r_7 - 10002.399132 X_3_7 >= 0
r_8 - 16019.945199 X_3_8 >= 0
r_9 - 21546.261097 X_3_9 >= 0
r_10 - 16665.241445 X_3_10 >= 0
r_11 - 17959.953770 X_3_11 >= 0
r_12 - 21718.686515 X_3_12 >= 0
r_13 - 25096.244116 X_3_13 >= 0
r_14 - 26051.593573 X_3_14 >= 0
r_15 - 24542.471542 X_3_15 >= 0
r_16 - 24508.767721 X_3_16 >= 0
r_17 - 35919.237860 X_3_17 >= 0
r_18 - 30649.533969 X_3_18 >= 0
r_19 - 28293.751747 X_3_19 >= 0
r_20 - 28551.499174 X_3_20 >= 0
r_1 - 36817.924256 X_4_1 >= 0
r_2 - 26434.767398 X_4_2 >= 0
r_3 - 19050.708631 X_4_3 >= 0
r_4 - 0.000000 X_4_4 >= 0
r_5 - 35430.309158 X_4_5 >= 0
r_6 - 25402.205339 X_4_6 >= 0
r_7 - 21685.626132 X_4_7 >= 0
r_8 - 16710.348441 X_4_8 >= 0
r_9 - 37344.319996 X_4_9 >= 0
r_10 - 28039.160899 X_4_10 >= 0
r_11 - 25187.410770 X_4_11 >= 0
r_12 - 21074.067498 X_4_12 >= 0
r_13 - 38771.963447 X_4_13 >= 0
r_14 - 36106.962824 X_4_14 >= 0
r_15 - 32963.241639 X_4_15 >= 0
r_16 - 25973.289252 X_4_16 >= 0
r_17 - 50490.863937 X_4_17 >= 0
r_18 - 41666.394216 X_4_18 >= 0
r_19 - 36607.846143 X_4_19 >= 0
r_20 - 34468.826069 X_4_20 >= 0
r_1 - 15640.177599 X_5_1 >= 0
r_2 - 20170.356461 X_5_2 >= 0
r_3 - 18041.531424 X_5_3 >= 0
r_4 - 35430.309158 X_5_4 >= 0
r_5 - 0.000000 X_5_5 >= 0
r_6 - 10028.438181 X_5_6 >= 0
r_7 - 14688.314779 X_5_7 >= 0
r_8 - 24010.642853 X_5_8 >= 0
r_9 - 5366.221261 X_5_9 >= 0
r_10 - 12589.444837 X_5_10 >= 0
r_11 - 17956.134407 X_5_11 >= 0
r_12 - 26671.686133 X_5_12 >= 0
r_13 - 11114.296631 X_5_13 >= 0
r_14 - 16931.109053 X_5_14 >= 0
r_15 - 18341.824176 X_5_15 >= 0
r_16 - 26004.325690 X_5_16 >= 0
r_17 - 19019.166537 X_5_17 >= 0
r_18 - 18583.423203 X_5_18 >= 0
r_19 - 20455.001434 X_5_19 >= 0
r_20 - 23456.215806 X_5_20 >= 0
r_1 - 17506.423842 X_6_1 >= 0
r_2 - 15388.685544 X_6_2 >= 0
r_3 - 9062.016164 X_6_3 >= 0
r_4 - 25402.205339 X_6_4 >= 0
r_5 - 10028.438181 X_6_5 >= 0
r_6 - 0.000000 X_6_6 >= 0
r_7 - 5700.330937 X_6_7 >= 0
r_8 - 15371.259515 X_6_8 >= 0
r_9 - 12646.278940 X_6_9 >= 0
r_10 - 8954.615699 X_6_10 >= 0
r_11 - 12422.670300 X_6_11 >= 0
r_12 - 19463.012130 X_6_12 >= 0
r_13 - 16055.967202 X_6_13 >= 0
r_14 - 17818.379270 X_6_14 >= 0
r_15 - 17078.336490 X_6_15 >= 0
r_16 - 20454.795937 X_6_16 >= 0
r_17 - 26912.257060 X_6_17 >= 0
r_18 - 21947.302512 X_6_18 >= 0
r_19 - 20537.763389 X_6_19 >= 0
r_20 - 21748.430922 X_6_20 >= 0
r_1 - 22977.075706 X_7_1 >= 0
r_2 - 18942.300323 X_7_2 >= 0
r_3 - 10002.399132 X_7_3 >= 0
r_4 - 21685.626132 X_7_4 >= 0
r_5 - 14688.314779 X_7_5 >= 0
r_6 - 5700.330937 X_7_6 >= 0
r_7 - 0.000000 X_7_7 >= 0
r_8 - 9701.380186 X_7_8 >= 0
r_9 - 15721.178583 X_7_9 >= 0
r_10 - 7201.825916 X_7_10 >= 0
r_11 - 8056.282716 X_7_11 >= 0
r_12 - 13881.124934 X_7_12 >= 0
r_13 - 17329.647098 X_7_13 >= 0
r_14 - 16538.838927 X_7_14 >= 0
r_15 - 14643.554282 X_7_15 >= 0
r_16 - 15410.787657 X_7_16 >= 0
r_17 - 28953.092702 X_7_17 >= 0
r_18 - 21585.144249 X_7_18 >= 0
r_19 - 18454.105537 X_7_19 >= 0
r_20 - 18549.862218 X_7_20 >= 0
r_1 - 32193.635298 X_8_1 >= 0
r_2 - 26082.039816 X_8_2 >= 0
r_3 - 16019.945199 X_8_3 >= 0
r_4 - 16710.348441 X_8_4 >= 0
r_5 - 24010.642853 X_8_5 >= 0
r_6 - 15371.259515 X_8_6 >= 0
r_7 - 9701.380186 X_8_7 >= 0
r_8 - 0.000000 X_8_8 >= 0
r_9 - 23932.944587 X_8_9 >= 0
r_10 - 13082.659300 X_8_10 >= 0
r_11 - 8882.284690 X_8_11 >= 0
r_12 - 5995.995315 X_8_12 >= 0
r_13 - 23694.475158 X_8_13 >= 0
r_14 - 19746.022043 X_8_14 >= 0
r_15 - 16389.208989 X_8_15 >= 0
r_16 - 10097.221921 X_8_16 >= 0
r_17 - 35284.765777 X_8_17 >= 0
r_18 - 25348.379785 X_8_18 >= 0
r_19 - 19941.118731 X_8_19 >= 0
r_20 - 17808.664309 X_8_20 >= 0
r_1 - 20952.586216 X_9_1 >= 0
r_2 - 25120.784956 X_9_2 >= 0
r_3 - 21546.261097 X_9_3 >= 0
r_4 - 37344.319996 X_9_4 >= 0
r_5 - 5366.221261 X_9_5 >= 0
r_6 - 12646.278940 X_9_6 >= 0
r_7 - 15721.178583 X_9_7 >= 0
r_8 - 23932.944587 X_9_8 >= 0
r_9 - 0.000000 X_9_9 >= 0
r_10 - 11091.986988 X_9_10 >= 0
r_11 - 16400.918297 X_9_11 >= 0
r_12 - 25395.112327 X_9_12 >= 0
r_13 - 5843.343646 X_9_13 >= 0
r_14 - 12471.426534 X_9_14 >= 0
r_15 - 14625.384310 X_9_15 >= 0
r_16 - 23771.048480 X_9_16 >= 0
r_17 - 14437.866315 X_9_17 >= 0
r_18 - 13354.841764 X_9_18 >= 0
r_19 - 16045.682528 X_9_19 >= 0
r_20 - 19558.060316 X_9_20 >= 0
r_1 - 25387.062499 X_10_1 >= 0
r_2 - 24313.437810 X_10_2 >= 0
r_3 - 16665.241445 X_10_3 >= 0
r_4 - 28039.160899 X_10_4 >= 0
r_5 - 12589.444837 X_10_5 >= 0
r_6 - 8954.615699 X_10_6 >= 0
r_7 - 7201.825916 X_10_7 >= 0
r_8 - 13082.659300 X_10_8 >= 0
r_9 - 11091.986988 X_10_9 >= 0
r_10 - 0.000000 X_10_10 >= 0
r_11 - 5429.536975 X_10_11 >= 0
r_12 - 14370.173030 X_10_12 >= 0
r_13 - 10804.872797 X_10_13 >= 0
r_14 - 9416.214860 X_10_14 >= 0
r_15 - 8138.329462 X_10_15 >= 0
r_16 - 13425.629750 X_10_16 >= 0
r_17 - 22528.134084 X_10_17 >= 0
r_18 - 14384.909350 X_10_18 >= 0
r_19 - 11718.147023 X_10_19 >= 0
r_20 - 12831.747223 X_10_20 >= 0
r_1 - 29774.379425 X_11_1 >= 0
r_2 - 26951.780016 X_11_2 >= 0
r_3 - 17959.953770 X_11_3 >= 0
r_4 - 25187.410770 X_11_4 >= 0
r_5 - 17956.134407 X_11_5 >= 0
r_6 - 12422.670300 X_11_6 >= 0
r_7 - 8056.282716 X_11_7 >= 0
r_8 - 8882.284690 X_11_8 >= 0
r_9 - 16400.918297 X_11_9 >= 0
r_10 - 5429.536975 X_11_10 >= 0
r_11 - 0.000000 X_11_11 >= 0
r_12 - 8994.266040 X_11_12 >= 0
r_13 - 15106.699598 X_11_13 >= 0
r_14 - 10938.482542 X_11_14 >= 0
r_15 - 7858.513242 X_11_15 >= 0
r_16 - 8252.506792 X_11_16 >= 0
r_17 - 26522.615334 X_11_17 >= 0
r_18 - 16527.816833 X_11_18 >= 0
r_19 - 11651.547007 X_11_19 >= 0
r_20 - 10760.485734 X_11_20 >= 0
r_1 - 36858.081040 X_12_1 >= 0
r_2 - 31700.070608 X_12_2 >= 0
r_3 - 21718.686515 X_12_3 >= 0
r_4 - 21074.067498 X_12_4 >= 0
r_5 - 26671.686133 X_12_5 >= 0
r_6 - 19463.012130 X_12_6 >= 0
r_7 - 13881.124934 X_12_7 >= 0
r_8 - 5995.995315 X_12_8 >= 0
r_9 - 25395.112327 X_12_9 >= 0
r_10 - 14370.173030 X_12_10 >= 0
r_11 - 8994.266040 X_12_11 >= 0
r_12 - 0.000000 X_12_12 >= 0
r_13 - 23738.761004 X_12_13 >= 0
r_14 - 18141.795765 X_12_14 >= 0
r_15 - 14399.903137 X_12_15 >= 0
r_16 - 4937.887282 X_12_16 >= 0
r_17 - 34705.156941 X_12_17 >= 0
r_18 - 23551.486038 X_12_18 >= 0
r_19 - 17273.921423 X_12_19 >= 0
r_20 - 14102.775806 X_12_20 >= 0
r_1 - 26751.922134 X_13_1 >= 0
r_2 - 30086.018957 X_13_2 >= 0
r_3 - 25096.244116 X_13_3 >= 0
r_4 - 38771.963447 X_13_4 >= 0
r_5 - 11114.296631 X_13_5 >= 0
r_6 - 16055.967202 X_13_6 >= 0
r_7 - 17329.647098 X_13_7 >= 0
r_8 - 23694.475158 X_13_8 >= 0
r_9 - 5843.343646 X_13_9 >= 0
r_10 - 10804.872797 X_13_10 >= 0
r_11 - 15106.699598 X_13_11 >= 0
r_12 - 23738.761004 X_13_12 >= 0
r_13 - 0.000000 X_13_13 >= 0
r_14 - 7600.820829 X_13_14 >= 0
r_15 - 10679.263513 X_13_15 >= 0
r_16 - 21087.150095 X_13_16 >= 0
r_17 - 11729.930738 X_13_17 >= 0
r_18 - 7511.775061 X_13_18 >= 0
r_19 - 11024.707699 X_13_19 >= 0
r_20 - 15043.535345 X_13_20 >= 0
r_1 - 32128.150462 X_14_1 >= 0
r_2 - 33114.811704 X_14_2 >= 0
r_3 - 26051.593573 X_14_3 >= 0
r_4 - 36106.962824 X_14_4 >= 0
r_5 - 16931.109053 X_14_5 >= 0
r_6 - 17818.379270 X_14_6 >= 0
r_7 - 16538.838927 X_14_7 >= 0
r_8 - 19746.022043 X_14_8 >= 0
r_9 - 12471.426534 X_14_9 >= 0
r_10 - 9416.214860 X_14_10 >= 0
r_11 - 10938.482542 X_14_11 >= 0
r_12 - 18141.795765 X_14_12 >= 0
r_13 - 7600.820829 X_14_13 >= 0
r_14 - 0.000000 X_14_14 >= 0
r_15 - 3778.913849 X_14_15 >= 0
r_16 - 14578.139352 X_14_16 >= 0
r_17 - 16764.714943 X_14_17 >= 0
r_18 - 5602.431996 X_14_18 >= 0
r_19 - 3574.804175 X_14_19 >= 0
r_20 - 7450.042570 X_14_20 >= 0
r_1 - 32804.232884 X_15_1 >= 0
r_2 - 32450.797588 X_15_2 >= 0
r_3 - 24542.471542 X_15_3 >= 0
r_4 - 32963.241639 X_15_4 >= 0
r_5 - 18341.824176 X_15_5 >= 0
r_6 - 17078.336490 X_15_6 >= 0
r_7 - 14643.554282 X_15_7 >= 0
r_8 - 16389.208989 X_15_8 >= 0
r_9 - 14625.384310 X_15_9 >= 0
r_10 - 8138.329462 X_15_10 >= 0
r_11 - 7858.513242 X_15_11 >= 0
r_12 - 14399.903137 X_15_12 >= 0
r_13 - 10679.263513 X_15_13 >= 0
r_14 - 3778.913849 X_15_14 >= 0
r_15 - 0.000000 X_15_15 >= 0
r_16 - 10817.999673 X_15_16 >= 0
r_17 - 20531.038231 X_15_17 >= 0
r_18 - 9178.083461 X_15_18 >= 0
r_19 - 3860.012273 X_15_19 >= 0
r_20 - 5128.936189 X_15_20 >= 0
r_1 - 37925.077346 X_16_1 >= 0
r_2 - 34167.914043 X_16_2 >= 0
r_3 - 24508.767721 X_16_3 >= 0
r_4 - 25973.289252 X_16_4 >= 0
r_5 - 26004.325690 X_16_5 >= 0
r_6 - 20454.795937 X_16_6 >= 0
r_7 - 15410.787657 X_16_7 >= 0
r_8 - 10097.221921 X_16_8 >= 0
r_9 - 23771.048480 X_16_9 >= 0
r_10 - 13425.629750 X_16_10 >= 0
r_11 - 8252.506792 X_16_11 >= 0
r_12 - 4937.887282 X_16_12 >= 0
r_13 - 21087.150095 X_16_13 >= 0
r_14 - 14578.139352 X_16_14 >= 0
r_15 - 10817.999673 X_16_15 >= 0
r_16 - 0.000000 X_16_16 >= 0
r_17 - 31342.774534 X_16_17 >= 0
r_18 - 19656.414666 X_16_18 >= 0
r_19 - 13060.761234 X_16_19 >= 0
r_20 - 9438.329130 X_16_20 >= 0
r_1 - 32953.053481 X_17_1 >= 0
r_2 - 39186.633294 X_17_2 >= 0
r_3 - 35919.237860 X_17_3 >= 0
r_4 - 50490.863937 X_17_4 >= 0
r_5 - 19019.166537 X_17_5 >= 0
r_6 - 26912.257060 X_17_6 >= 0
r_7 - 28953.092702 X_17_7 >= 0
r_8 - 35284.765777 X_17_8 >= 0
r_9 - 14437.866315 X_17_9 >= 0
r_10 - 22528.134084 X_17_10 >= 0
r_11 - 26522.615334 X_17_11 >= 0
r_12 - 34705.156941 X_17_12 >= 0
r_13 - 11729.930738 X_17_13 >= 0
r_14 - 16764.714943 X_17_14 >= 0
r_15 - 20531.038231 X_17_15 >= 0
r_16 - 31342.774534 X_17_16 >= 0
r_17 - 0.000000 X_17_17 >= 0
r_18 - 12207.645943 X_17_18 >= 0
r_19 - 18900.282838 X_17_19 >= 0
r_20 - 23301.933219 X_17_20 >= 0
r_1 - 34220.366976 X_18_1 >= 0
r_2 - 36810.532154 X_18_2 >= 0
r_3 - 30649.533969 X_18_3 >= 0
r_4 - 41666.394216 X_18_4 >= 0
r_5 - 18583.423203 X_18_5 >= 0
r_6 - 21947.302512 X_18_6 >= 0
r_7 - 21585.144249 X_18_7 >= 0
r_8 - 25348.379785 X_18_8 >= 0
r_9 - 13354.841764 X_18_9 >= 0
r_10 - 14384.909350 X_18_10 >= 0
r_11 - 16527.816833 X_18_11 >= 0
r_12 - 23551.486038 X_18_12 >= 0
r_13 - 7511.775061 X_18_13 >= 0
r_14 - 5602.431996 X_18_14 >= 0
r_15 - 9178.083461 X_18_15 >= 0
r_16 - 19656.414666 X_18_16 >= 0
r_17 - 12207.645943 X_18_17 >= 0
r_18 - 0.000000 X_18_18 >= 0
r_19 - 6769.704705 X_18_19 >= 0
r_20 - 11122.882646 X_18_20 >= 0
r_1 - 35513.386889 X_19_1 >= 0
r_2 - 35922.964671 X_19_2 >= 0
r_3 - 28293.751747 X_19_3 >= 0
r_4 - 36607.846143 X_19_4 >= 0
r_5 - 20455.001434 X_19_5 >= 0
r_6 - 20537.763389 X_19_6 >= 0
r_7 - 18454.105537 X_19_7 >= 0
r_8 - 19941.118731 X_19_8 >= 0
r_9 - 16045.682528 X_19_9 >= 0
r_10 - 11718.147023 X_19_10 >= 0
r_11 - 11651.547007 X_19_11 >= 0
r_12 - 17273.921423 X_19_12 >= 0
r_13 - 11024.707699 X_19_13 >= 0
r_14 - 3574.804175 X_19_14 >= 0
r_15 - 3860.012273 X_19_15 >= 0
r_16 - 13060.761234 X_19_16 >= 0
r_17 - 18900.282838 X_19_17 >= 0
r_18 - 6769.704705 X_19_18 >= 0
r_19 - 0.000000 X_19_19 >= 0
r_20 - 4421.233157 X_19_20 >= 0
r_1 - 37877.783478 X_20_1 >= 0
r_2 - 37001.731160 X_20_2 >= 0
r_3 - 28551.499174 X_20_3 >= 0
r_4 - 34468.826069 X_20_4 >= 0
r_5 - 23456.215806 X_20_5 >= 0
r_6 - 21748.430922 X_20_6 >= 0
r_7 - 18549.862218 X_20_7 >= 0
r_8 - 17808.664309 X_20_8 >= 0
r_9 - 19558.060316 X_20_9 >= 0
r_10 - 12831.747223 X_20_10 >= 0
r_11 - 10760.485734 X_20_11 >= 0
r_12 - 14102.775806 X_20_12 >= 0
r_13 - 15043.535345 X_20_13 >= 0
r_14 - 7450.042570 X_20_14 >= 0
r_15 - 5128.936189 X_20_15 >= 0
r_16 - 9438.329130 X_20_16 >= 0
r_17 - 23301.933219 X_20_17 >= 0
r_18 - 11122.882646 X_20_18 >= 0
r_19 - 4421.233157 X_20_19 >= 0
r_20 - 0.000000 X_20_20 >= 0

z - r_1 - r_1 >= 0.000000
z - r_1 - r_2 >= 8680.260337
z - r_2 - r_2 >= 0.000000
z - r_1 - r_3 >= 13622.558778
z - r_2 - r_3 >= 7556.437432
z - r_3 - r_3 >= 0.000000
z - r_1 - r_4 >= 27613.443192
z - r_2 - r_4 >= 19826.075549
z - r_3 - r_4 >= 14288.031474
z - r_4 - r_4 >= 0.000000
z - r_1 - r_5 >= 11730.133199
z - r_2 - r_5 >= 15127.767346
z - r_3 - r_5 >= 13531.148568
z - r_4 - r_5 >= 26572.731869
z - r_5 - r_5 >= 0.000000
z - r_1 - r_6 >= 13129.817881
z - r_2 - r_6 >= 11541.514158
z - r_3 - r_6 >= 6796.512123
z - r_4 - r_6 >= 19051.654004
z - r_5 - r_6 >= 7521.328636
z - r_6 - r_6 >= 0.000000
z - r_1 - r_7 >= 17232.806780
z - r_2 - r_7 >= 14206.725242
z - r_3 - r_7 >= 7501.799349
z - r_4 - r_7 >= 16264.219599
z - r_5 - r_7 >= 11016.236085
z - r_6 - r_7 >= 4275.248203
z - r_7 - r_7 >= 0.000000
z - r_1 - r_8 >= 24145.226473
z - r_2 - r_8 >= 19561.529862
z - r_3 - r_8 >= 12014.958900
z - r_4 - r_8 >= 12532.761331
z - r_5 - r_8 >= 18007.982140
z - r_6 - r_8 >= 11528.444636
z - r_7 - r_8 >= 7276.035139
z - r_8 - r_8 >= 0.000000
z - r_1 - r_9 >= 15714.439662
z - r_2 - r_9 >= 18840.588717
z - r_3 - r_9 >= 16159.695823
z - r_4 - r_9 >= 28008.239997
z - r_5 - r_9 >= 4024.665946
z - r_6 - r_9 >= 9484.709205
z - r_7 - r_9 >= 11790.883937
z - r_8 - r_9 >= 17949.708440
z - r_9 - r_9 >= 0.000000
z - r_1 - r_10 >= 19040.296874
z - r_2 - r_10 >= 18235.078358
z - r_3 - r_10 >= 12498.931084
z - r_4 - r_10 >= 21029.370675
z - r_5 - r_10 >= 9442.083628
z - r_6 - r_10 >= 6715.961774
z - r_7 - r_10 >= 5401.369437
z - r_8 - r_10 >= 9811.994475
z - r_9 - r_10 >= 8318.990241
z - r_10 - r_10 >= 0.000000
z - r_1 - r_11 >= 22330.784569
z - r_2 - r_11 >= 20213.835012
z - r_3 - r_11 >= 13469.965327
z - r_4 - r_11 >= 18890.558078
z - r_5 - r_11 >= 13467.100805
z - r_6 - r_11 >= 9317.002725
z - r_7 - r_11 >= 6042.212037
z - r_8 - r_11 >= 6661.713518
z - r_9 - r_11 >= 12300.688722
z - r_10 - r_11 >= 4072.152731
z - r_11 - r_11 >= 0.000000
z - r_1 - r_12 >= 27643.560780
z - r_2 - r_12 >= 23775.052956
z - r_3 - r_12 >= 16289.014886
z - r_4 - r_12 >= 15805.550623
z - r_5 - r_12 >= 20003.764600
z - r_6 - r_12 >= 14597.259098
z - r_7 - r_12 >= 10410.843700
z - r_8 - r_12 >= 4496.996486
z - r_9 - r_12 >= 19046.334245
z - r_10 - r_12 >= 10777.629773
z - r_11 - r_12 >= 6745.699530
z - r_12 - r_12 >= 0.000000
z - r_1 - r_13 >= 20063.941601
z - r_2 - r_13 >= 22564.514218
z - r_3 - r_13 >= 18822.183087
z - r_4 - r_13 >= 29078.972585
z - r_5 - r_13 >= 8335.722473
z - r_6 - r_13 >= 12041.975402
z - r_7 - r_13 >= 12997.235323
z - r_8 - r_13 >= 17770.856368
z - r_9 - r_13 >= 4382.507734
z - r_10 - r_13 >= 8103.654598
z - r_11 - r_13 >= 11330.024699
z - r_12 - r_13 >= 17804.070753
z - r_13 - r_13 >= 0.000000
z - r_1 - r_14 >= 24096.112847
z - r_2 - r_14 >= 24836.108778
z - r_3 - r_14 >= 19538.695180
z - r_4 - r_14 >= 27080.222118
z - r_5 - r_14 >= 12698.331790
z - r_6 - r_14 >= 13363.784453
z - r_7 - r_14 >= 12404.129196
z - r_8 - r_14 >= 14809.516532
z - r_9 - r_14 >= 9353.569901
z - r_10 - r_14 >= 7062.161145
z - r_11 - r_14 >= 8203.861906
z - r_12 - r_14 >= 13606.346824
z - r_13 - r_14 >= 5700.615622
z - r_14 - r_14 >= 0.000000
z - r_1 - r_15 >= 24603.174663
z - r_2 - r_15 >= 24338.098191
z - r_3 - r_15 >= 18406.853656
z - r_4 - r_15 >= 24722.431229
z - r_5 - r_15 >= 13756.368132
z - r_6 - r_15 >= 12808.752368
z - r_7 - r_15 >= 10982.665711
z - r_8 - r_15 >= 12291.906742
z - r_9 - r_15 >= 10969.038232
z - r_10 - r_15 >= 6103.747096
z - r_11 - r_15 >= 5893.884931
z - r_12 - r_15 >= 10799.927352
z - r_13 - r_15 >= 8009.447635
z - r_14 - r_15 >= 2834.185387
z - r_15 - r_15 >= 0.000000
z - r_1 - r_16 >= 28443.808009
z - r_2 - r_16 >= 25625.935532
z - r_3 - r_16 >= 18381.575791
z - r_4 - r_16 >= 19479.966939
z - r_5 - r_16 >= 19503.244268
z - r_6 - r_16 >= 15341.096953
z - r_7 - r_16 >= 11558.090743
z - r_8 - r_16 >= 7572.916441
z - r_9 - r_16 >= 17828.286360
z - r_10 - r_16 >= 10069.222312
z - r_11 - r_16 >= 6189.380094
z - r_12 - r_16 >= 3703.415462
z - r_13 - r_16 >= 15815.362571
z - r_14 - r_16 >= 10933.604514
z - r_15 - r_16 >= 8113.499754
z - r_16 - r_16 >= 0.000000
z - r_1 - r_17 >= 24714.790111
z - r_2 - r_17 >= 29389.974970
z - r_3 - r_17 >= 26939.428395
z - r_4 - r_17 >= 37868.147953
z - r_5 - r_17 >= 14264.374902
z - r_6 - r_17 >= 20184.192795
z - r_7 - r_17 >= 21714.819526
z - r_8 - r_17 >= 26463.574333
z - r_9 - r_17 >= 10828.399737
z - r_10 - r_17 >= 16896.100563
z - r_11 - r_17 >= 19891.961500
z - r_12 - r_17 >= 26028.867706
z - r_13 - r_17 >= 8797.448053
z - r_14 - r_17 >= 12573.536207
z - r_15 - r_17 >= 15398.278673
z - r_16 - r_17 >= 23507.080901
z - r_17 - r_17 >= 0.000000
z - r_1 - r_18 >= 25665.275232
z - r_2 - r_18 >= 27607.899116
z - r_3 - r_18 >= 22987.150477
z - r_4 - r_18 >= 31249.795662
z - r_5 - r_18 >= 13937.567402
z - r_6 - r_18 >= 16460.476884
z - r_7 - r_18 >= 16188.858186
z - r_8 - r_18 >= 19011.284839
z - r_9 - r_18 >= 10016.131323
z - r_10 - r_18 >= 10788.682013
z - r_11 - r_18 >= 12395.862625
z - r_12 - r_18 >= 17663.614529
z - r_13 - r_18 >= 5633.831296
z - r_14 - r_18 >= 4201.823997
z - r_15 - r_18 >= 6883.562596
z - r_16 - r_18 >= 14742.311000
z - r_17 - r_18 >= 9155.734458
z - r_18 - r_18 >= 0.000000
z - r_1 - r_19 >= 26635.040167
z - r_2 - r_19 >= 26942.223503
z - r_3 - r_19 >= 21220.313810
z - r_4 - r_19 >= 27455.884608
z - r_5 - r_19 >= 15341.251076
z - r_6 - r_19 >= 15403.322542
z - r_7 - r_19 >= 13840.579153
z - r_8 - r_19 >= 14955.839048
z - r_9 - r_19 >= 12034.261896
z - r_10 - r_19 >= 8788.610267
z - r_11 - r_19 >= 8738.660255
z - r_12 - r_19 >= 12955.441067
z - r_13 - r_19 >= 8268.530774
z - r_14 - r_19 >= 2681.103131
z - r_15 - r_19 >= 2895.009205
z - r_16 - r_19 >= 9795.570926
z - r_17 - r_19 >= 14175.212129
z - r_18 - r_19 >= 5077.278529
z - r_19 - r_19 >= 0.000000
z - r_1 - r_20 >= 28408.337609
z - r_2 - r_20 >= 27751.298370
z - r_3 - r_20 >= 21413.624380
z - r_4 - r_20 >= 25851.619552
z - r_5 - r_20 >= 17592.161854
z - r_6 - r_20 >= 16311.323191
z - r_7 - r_20 >= 13912.396663
z - r_8 - r_20 >= 13356.498231
z - r_9 - r_20 >= 14668.545237
z - r_10 - r_20 >= 9623.810418
z - r_11 - r_20 >= 8070.364301
z - r_12 - r_20 >= 10577.081854
z - r_13 - r_20 >= 11282.651508
z - r_14 - r_20 >= 5587.531927
z - r_15 - r_20 >= 3846.702142
z - r_16 - r_20 >= 7078.746847
z - r_17 - r_20 >= 17476.449914
z - r_18 - r_20 >= 8342.161984
z - r_19 - r_20 >= 3315.924868
z - r_20 - r_20 >= 0.000000

BOUNDS
0 <= r_0 <= inf
0 <= r_1 <= inf
0 <= r_2 <= inf
0 <= r_3 <= inf
0 <= r_4 <= inf
0 <= r_5 <= inf
0 <= r_6 <= inf
0 <= r_7 <= inf
0 <= r_8 <= inf
0 <= r_9 <= inf
0 <= r_10 <= inf
0 <= r_11 <= inf
0 <= r_12 <= inf
0 <= r_13 <= inf
0 <= r_14 <= inf
0 <= r_15 <= inf
0 <= r_16 <= inf
0 <= r_17 <= inf
0 <= r_18 <= inf
0 <= r_19 <= inf

Binary
X_1_1
X_1_2
X_1_3
X_1_4
X_1_5
X_1_6
X_1_7
X_1_8
X_1_9
X_1_10
X_1_11
X_1_12
X_1_13
X_1_14
X_1_15
X_1_16
X_1_17
X_1_18
X_1_19
X_1_20
X_2_1
X_2_2
X_2_3
X_2_4
X_2_5
X_2_6
X_2_7
X_2_8
X_2_9
X_2_10
X_2_11
X_2_12
X_2_13
X_2_14
X_2_15
X_2_16
X_2_17
X_2_18
X_2_19
X_2_20
X_3_1
X_3_2
X_3_3
X_3_4
X_3_5
X_3_6
X_3_7
X_3_8
X_3_9
X_3_10
X_3_11
X_3_12
X_3_13
X_3_14
X_3_15
X_3_16
X_3_17
X_3_18
X_3_19
X_3_20
X_4_1
X_4_2
X_4_3
X_4_4
X_4_5
X_4_6
X_4_7
X_4_8
X_4_9
X_4_10
X_4_11
X_4_12
X_4_13
X_4_14
X_4_15
X_4_16
X_4_17
X_4_18
X_4_19
X_4_20
X_5_1
X_5_2
X_5_3
X_5_4
X_5_5
X_5_6
X_5_7
X_5_8
X_5_9
X_5_10
X_5_11
X_5_12
X_5_13
X_5_14
X_5_15
X_5_16
X_5_17
X_5_18
X_5_19
X_5_20
X_6_1
X_6_2
X_6_3
X_6_4
X_6_5
X_6_6
X_6_7
X_6_8
X_6_9
X_6_10
X_6_11
X_6_12
X_6_13
X_6_14
X_6_15
X_6_16
X_6_17
X_6_18
X_6_19
X_6_20
X_7_1
X_7_2
X_7_3
X_7_4
X_7_5
X_7_6
X_7_7
X_7_8
X_7_9
X_7_10
X_7_11
X_7_12
X_7_13
X_7_14
X_7_15
X_7_16
X_7_17
X_7_18
X_7_19
X_7_20
X_8_1
X_8_2
X_8_3
X_8_4
X_8_5
X_8_6
X_8_7
X_8_8
X_8_9
X_8_10
X_8_11
X_8_12
X_8_13
X_8_14
X_8_15
X_8_16
X_8_17
X_8_18
X_8_19
X_8_20
X_9_1
X_9_2
X_9_3
X_9_4
X_9_5
X_9_6
X_9_7
X_9_8
X_9_9
X_9_10
X_9_11
X_9_12
X_9_13
X_9_14
X_9_15
X_9_16
X_9_17
X_9_18
X_9_19
X_9_20
X_10_1
X_10_2
X_10_3
X_10_4
X_10_5
X_10_6
X_10_7
X_10_8
X_10_9
X_10_10
X_10_11
X_10_12
X_10_13
X_10_14
X_10_15
X_10_16
X_10_17
X_10_18
X_10_19
X_10_20
X_11_1
X_11_2
X_11_3
X_11_4
X_11_5
X_11_6
X_11_7
X_11_8
X_11_9
X_11_10
X_11_11
X_11_12
X_11_13
X_11_14
X_11_15
X_11_16
X_11_17
X_11_18
X_11_19
X_11_20
X_12_1
X_12_2
X_12_3
X_12_4
X_12_5
X_12_6
X_12_7
X_12_8
X_12_9
X_12_10
X_12_11
X_12_12
X_12_13
X_12_14
X_12_15
X_12_16
X_12_17
X_12_18
X_12_19
X_12_20
X_13_1
X_13_2
X_13_3
X_13_4
X_13_5
X_13_6
X_13_7
X_13_8
X_13_9
X_13_10
X_13_11
X_13_12
X_13_13
X_13_14
X_13_15
X_13_16
X_13_17
X_13_18
X_13_19
X_13_20
X_14_1
X_14_2
X_14_3
X_14_4
X_14_5
X_14_6
X_14_7
X_14_8
X_14_9
X_14_10
X_14_11
X_14_12
X_14_13
X_14_14
X_14_15
X_14_16
X_14_17
X_14_18
X_14_19
X_14_20
X_15_1
X_15_2
X_15_3
X_15_4
X_15_5
X_15_6
X_15_7
X_15_8
X_15_9
X_15_10
X_15_11
X_15_12
X_15_13
X_15_14
X_15_15
X_15_16
X_15_17
X_15_18
X_15_19
X_15_20
X_16_1
X_16_2
X_16_3
X_16_4
X_16_5
X_16_6
X_16_7
X_16_8
X_16_9
X_16_10
X_16_11
X_16_12
X_16_13
X_16_14
X_16_15
X_16_16
X_16_17
X_16_18
X_16_19
X_16_20
X_17_1
X_17_2
X_17_3
X_17_4
X_17_5
X_17_6
X_17_7
X_17_8
X_17_9
X_17_10
X_17_11
X_17_12
X_17_13
X_17_14
X_17_15
X_17_16
X_17_17
X_17_18
X_17_19
X_17_20
X_18_1
X_18_2
X_18_3
X_18_4
X_18_5
X_18_6
X_18_7
X_18_8
X_18_9
X_18_10
X_18_11
X_18_12
X_18_13
X_18_14
X_18_15
X_18_16
X_18_17
X_18_18
X_18_19
X_18_20
X_19_1
X_19_2
X_19_3
X_19_4
X_19_5
X_19_6
X_19_7
X_19_8
X_19_9
X_19_10
X_19_11
X_19_12
X_19_13
X_19_14
X_19_15
X_19_16
X_19_17
X_19_18
X_19_19
X_19_20
X_20_1
X_20_2
X_20_3
X_20_4
X_20_5
X_20_6
X_20_7
X_20_8
X_20_9
X_20_10
X_20_11
X_20_12
X_20_13
X_20_14
X_20_15
X_20_16
X_20_17
X_20_18
X_20_19
X_20_20

End